X Y Z Stress_XX Stress_XY Stress_YY
0.166667 0.166667 0 35.4604 -38.1595 4275.92
0.2 0.166667 0 24.0656 -28.5334 4270.37
0.233333 0.166667 0 35.0648 -37.0745 4288.39
0.266667 0.166667 0 49.1684 -46.6382 4306.85
0.3 0.166667 0 33.1183 -40.7655 4306.04
0.333333 0.166667 0 25.7768 -38.3692 4307.61
0.366667 0.166667 0 40.0444 -23.77 4312.84
0.4 0.166667 0 57.8547 -9.09612 4333.92
0.433333 0.166667 0 67.1159 -5.47555 4340.16
0.466667 0.166667 0 51.6246 -1.86367 4324.94
0.5 0.166667 0 54.0944 -3.9256 4312.74
0.533333 0.166667 0 61.6142 2.56991 4314.92
0.566667 0.166667 0 51.1924 16.0376 4314.63
0.6 0.166667 0 42.9487 23.8053 4308.38
0.633333 0.166667 0 34.5003 30.748 4301.51
0.666667 0.166667 0 45.6046 37.9889 4318.15
0.7 0.166667 0 43.984 36.1038 4323.6
0.733333 0.166667 0 35.9662 39.9877 4307.51
0.766667 0.166667 0 27.0563 45.9382 4284.52
0.8 0.166667 0 13.9332 47.2685 4270.96
0.833333 0.166667 0 16.1712 46.6039 4253.93
0.166667 0.2 0 18.604 -43.7984 4289.13
0.2 0.2 0 15.4766 -48.4338 4295.65
0.233333 0.2 0 19.1814 -36.787 4296.4
0.266667 0.2 0 27.8073 -45.4769 4313.68
0.3 0.2 0 23.4293 -51.8838 4323.55
0.333333 0.2 0 14.2199 -41.862 4320.1
0.366667 0.2 0 27.2021 -20.4175 4329.53
0.4 0.2 0 39.2733 -6.63227 4351.52
0.433333 0.2 0 40.5941 -12.4278 4348.38
0.466667 0.2 0 31.7286 -13.9053 4333.12
0.5 0.2 0 41.179 -5.80579 4329.53
0.533333 0.2 0 48.0477 -0.513301 4324.95
0.566667 0.2 0 36.7989 16.3225 4321.42
0.6 0.2 0 28.1844 27.0884 4317.15
0.633333 0.2 0 18.6472 40.4293 4314.17
0.666667 0.2 0 17.9328 49.1155 4306.44
0.7 0.2 0 19.9256 42.7045 4304.06
0.733333 0.2 0 20.5913 38.5457 4298.89
0.766667 0.2 0 18.9108 38.3485 4285.66
0.8 0.2 0 8.97826 52.0155 4255.67
0.833333 0.2 0 10.8228 51.7466 4245.25
0.166667 0.233333 0 -3.57178 -60.782 4247.47
0.2 0.233333 0 1.27627 -63.9086 4249.94
0.233333 0.233333 0 11.3868 -38.0736 4258.3
0.266667 0.233333 0 7.66648 -35.4157 4257.33
0.3 0.233333 0 6.21315 -41.417 4270.51
0.333333 0.233333 0 7.82498 -41.7456 4287.34
0.366667 0.233333 0 15.8827 -16.6862 4292.25
0.4 0.233333 0 11.1002 -15.3368 4287.54
0.433333 0.233333 0 10.7585 -25.374 4287.4
0.466667 0.233333 0 26.7461 -19.9953 4297.69
0.5 0.233333 0 24.9838 0.196815 4304.61
0.533333 0.233333 0 35.4818 -3.27075 4323.33
0.566667 0.233333 0 27.5458 13.2876 4320.42
0.6 0.233333 0 16.4687 23.0627 4314.74
0.633333 0.233333 0 8.78028 32.8875 4304.43
0.666667 0.233333 0 -3.34098 47.1358 4286.53
0.7 0.233333 0 -0.994148 45.8294 4275.37
0.733333 0.233333 0 5.65892 42.1405 4267.49
0.766667 0.233333 0 15.508 44.3642 4263.79
0.8 0.233333 0 11.6421 52.942 4250.25
0.833333 0.233333 0 1.33974 61.9116 4233.47
0.166667 0.266667 0 -17.4582 -67.214 4240.88
0.2 0.266667 0 9.78174 -52.4655 4264.47
0.233333 0.266667 0 9.94268 -45.3364 4266.49
0.266667 0.266667 0 1.87477 -41.6433 4262.69
0.3 0.266667 0 -9.58068 -35.2805 4257.62
0.333333 0.266667 0 -9.51475 -38.5948 4270.31
0.366667 0.266667 0 8.22741 -33.7367 4282.68
0.4 0.266667 0 -13.9735 -20.1591 4274.93
0.433333 0.266667 0 -10.2204 -23.9744 4285.19
0.466667 0.266667 0 20.7543 -12.6093 4306.13
0.5 0.266667 0 13.3113 3.881 4302.65
0.533333 0.266667 0 10.8296 8.33751 4305.14
0.566667 0.266667 0 18.3636 12.2258 4319.38
0.6 0.266667 0 8.08521 21.5022 4314.07
0.633333 0.266667 0 1.7236 28.3842 4306.34
0.666667 0.266667 0 -14.6504 40.7636 4288.1
0.7 0.266667 0 -11.6635 44.0753 4276.68
0.733333 0.266667 0 1.52841 46.7402 4272.71
0.766667 0.266667 0 8.98015 46.3635 4270.82
0.8 0.266667 0 11.9119 48.6675 4267.76
0.833333 0.266667 0 -1.41671 57.0452 4248.11
0.166667 0.3 0 -8.15702 -51.0245 4274.66
0.2 0.3 0 4.09891 -52.3051 4279.39
0.233333 0.3 0 4.70064 -49.9625 4276.72
0.266667 0.3 0 -4.28511 -43.7205 4272.04
0.3 0.3 0 -14.0119 -40.8922 4276.26
0.333333 0.3 0 -24.9729 -32.522 4281.73
0.366667 0.3 0 -5.73357 -38.1156 4298.03
0.4 0.3 0 -21.0084 -25.5115 4294.5
0.433333 0.3 0 -17.68 -16.1965 4304.68
0.466667 0.3 0 8.06427 -8.54268 4323.01
0.5 0.3 0 9.5112 -8.50031 4325.25
0.533333 0.3 0 -1.72844 11.8246 4312.42
0.566667 0.3 0 5.19037 17.9799 4316.77
0.6 0.3 0 0.058568 18.6975 4315.61
0.633333 0.3 0 -5.02569 21.2006 4306.12
0.666667 0.3 0 -17.1759 37.3671 4288.35
0.7 0.3 0 -13.5352 44.3123 4275.06
0.733333 0.3 0 -5.26619 45.3593 4272.29
0.766667 0.3 0 2.8286 48.3152 4274
0.8 0.3 0 3.73628 47.7778 4276.06
0.833333 0.3 0 1.06558 45.6041 4274.02
0.166667 0.333333 0 -12.1964 -48.0033 4285.3
0.2 0.333333 0 -5.45735 -54.7403 4285.23
0.233333 0.333333 0 -0.682367 -57.1064 4280.86
0.266667 0.333333 0 -9.52124 -46.2262 4274.43
0.3 0.333333 0 -22.2386 -42.5359 4273.04
0.333333 0.333333 0 -28.4712 -33.5233 4274.96
0.366667 0.333333 0 -20.4272 -30.1156 4278.85
0.4 0.333333 0 -13.9226 -31.5705 4302.23
0.433333 0.333333 0 -13.0397 -4.19483 4317
0.466667 0.333333 0 -9.42772 -9.2021 4317.96
0.5 0.333333 0 -4.71657 -12.5844 4312.53
0.533333 0.333333 0 -0.601317 0.614692 4304.27
0.566667 0.333333 0 -6.43605 19.7464 4290.63
0.6 0.333333 0 -13.2077 13.8523 4270.16
0.633333 0.333333 0 -11.6877 15.4091 4261.2
0.666667 0.333333 0 -9.66237 38.32 4264.19
0.7 0.333333 0 -20.8086 42.9248 4253.99
0.733333 0.333333 0 -12.3839 45.2983 4249.53
0.766667 0.333333 0 -2.31193 52.9639 4258.7
0.8 0.333333 0 -8.45225 50.7276 4267.67
0.833333 0.333333 0 -8.00849 43.211 4264.33
0.166667 0.366667 0 -19.3234 -44.1321 4259.6
0.2 0.366667 0 -20.4556 -51.1136 4261.33
0.233333 0.366667 0 -14.1196 -58.8661 4268.13
0.266667 0.366667 0 -14.1603 -48.9688 4270.71
0.3 0.366667 0 -26.1999 -42.2447 4273.03
0.333333 0.366667 0 -30.9568 -33.6048 4275.04
0.366667 0.366667 0 -25.0907 -28.0174 4275.35
0.4 0.366667 0 -9.40083 -16.0392 4285.65
0.433333 0.366667 0 -29.4777 -8.93773 4275.11
0.466667 0.366667 0 -28.8145 -16.4206 4266.48
0.5 0.366667 0 -15.939 -13.5686 4268.13
0.533333 0.366667 0 9.90869 9.2254 4287.87
0.566667 0.366667 0 -18.3065 17.623 4269.85
0.6 0.366667 0 -24.1456 16.0768 4261.61
0.633333 0.366667 0 -4.25987 32.0115 4274.83
0.666667 0.366667 0 -9.52311 34.3386 4269.46
0.7 0.366667 0 -26.9153 38.2158 4258.7
0.733333 0.366667 0 -13.5804 45.5561 4262.63
0.766667 0.366667 0 -5.42238 57.047 4273.1
0.8 0.366667 0 -22.6239 48.9678 4265.52
0.833333 0.366667 0 -14.6448 43.088 4262.19
0.166667 0.4 0 -13.0337 -51.9262 4270.79
0.2 0.4 0 -29.123 -47.5942 4267.32
0.233333 0.4 0 -21.0787 -49.4628 4277.59
0.266667 0.4 0 -13.3689 -47.0564 4288.34
0.3 0.4 0 -28.3035 -37.9573 4282.86
0.333333 0.4 0 -33.4202 -29.9556 4283.95
0.366667 0.4 0 -20.7067 -19.5599 4293.07
0.4 0.4 0 -14.1222 -18.9924 4288.98
0.433333 0.4 0 -33.8883 -18.3296 4275.46
0.466667 0.4 0 -35.0532 -9.94316 4275.24
0.5 0.4 0 -7.3049 12.451 4298.15
0.533333 0.4 0 -2.42979 9.90987 4295.83
0.566667 0.4 0 -22.8891 11.0459 4281.46
0.6 0.4 0 -20.4919 29.5002 4281.16
0.633333 0.4 0 -13.6803 34.1298 4284.75
0.666667 0.4 0 -19.203 28.9321 4281.02
0.7 0.4 0 -28.2679 37.3713 4283.34
0.733333 0.4 0 -11.0734 52.0042 4295.14
0.766667 0.4 0 -9.57389 49.8921 4288.56
0.8 0.4 0 -28.127 46.6179 4281.53
0.833333 0.4 0 -2.7047 55.1013 4289.75
0.166667 0.433333 0 -11.6993 -49.4557 4275.84
0.2 0.433333 0 -23.3 -49.6199 4279.52
0.233333 0.433333 0 -18.7573 -41.0604 4280.96
0.266667 0.433333 0 -14.9978 -39.652 4283.82
0.3 0.433333 0 -24.4274 -36.3337 4274.5
0.333333 0.433333 0 -32.3856 -21.9223 4269.56
0.366667 0.433333 0 -27.1142 -20.6713 4265.64
0.4 0.433333 0 -19.7363 -24.3896 4262.73
0.433333 0.433333 0 -19.8399 -20.8786 4259.5
0.466667 0.433333 0 -22.0138 8.24297 4264.73
0.5 0.433333 0 -20.5518 9.51904 4258.6
0.533333 0.433333 0 -20.838 2.82002 4251.93
0.566667 0.433333 0 -21.1777 0.429793 4250.64
0.6 0.433333 0 -23.3355 27.5389 4249
0.633333 0.433333 0 -28.2126 28.9193 4248.54
0.666667 0.433333 0 -33.071 26.837 4254.28
0.7 0.433333 0 -23.2766 43.0085 4271.36
0.733333 0.433333 0 -12.9144 45.818 4287
0.766667 0.433333 0 -9.1391 44.228 4288.61
0.8 0.433333 0 -14.1602 56.7283 4296.74
0.833333 0.433333 0 -6.15831 54.2117 4300.24
0.166667 0.466667 0 -12.4086 -39.4157 4254.17
0.2 0.466667 0 -23.0616 -41.4179 4258.45
0.233333 0.466667 0 -7.87087 -45.6576 4264.94
0.266667 0.466667 0 -13.6359 -38.227 4259.37
0.3 0.466667 0 -21.777 -34.0943 4259.24
0.333333 0.466667 0 -35.2709 -25.7678 4252.98
0.366667 0.466667 0 -33.6417 -24.9673 4246.98
0.4 0.466667 0 -23.4088 -27.7269 4243.52
0.433333 0.466667 0 -3.5839 -17.9627 4246.63
0.466667 0.466667 0 -23.8412 1.82509 4236.29
0.5 0.466667 0 -33.7043 5.31966 4231.69
0.533333 0.466667 0 -34.5236 2.19052 4236.5
0.566667 0.466667 0 -13.7424 9.19778 4249.13
0.6 0.466667 0 -15.3718 19.3655 4254.24
0.633333 0.466667 0 -37.183 29.0543 4246.25
0.666667 0.466667 0 -37.0161 32.7016 4251.04
0.7 0.466667 0 -22.4814 42.539 4259.61
0.733333 0.466667 0 -12.9085 44.5374 4263.69
0.766667 0.466667 0 -0.34605 47.1104 4270.54
0.8 0.466667 0 -6.20498 54.068 4268.01
0.833333 0.466667 0 -14.5343 49.2418 4265.48
0.166667 0.5 0 -2.76474 -46.5654 4278.77
0.2 0.5 0 -24.4984 -34.3823 4262.06
0.233333 0.5 0 -8.00321 -39.9038 4268.08
0.266667 0.5 0 -3.85663 -44.4584 4274.06
0.3 0.5 0 -18.4299 -36.9177 4263.77
0.333333 0.5 0 -30.4177 -31.5565 4255.71
0.366667 0.5 0 -35.4132 -28.515 4248.92
0.4 0.5 0 -10.6604 -22.6141 4251.4
0.433333 0.5 0 -4.43372 -20.9193 4251.96
0.466667 0.5 0 -14.7576 -11.0868 4249.64
0.5 0.5 0 -37.4187 3.98171 4239.41
0.533333 0.5 0 -41.8339 5.1022 4244.31
0.566667 0.5 0 -14.4912 16.5663 4262.02
0.6 0.5 0 -14.1898 18.2385 4270.6
0.633333 0.5 0 -37.3191 27.7037 4262.4
0.666667 0.5 0 -34.0935 36.6984 4261.24
0.7 0.5 0 -20.1213 41.6232 4263.27
0.733333 0.5 0 -6.51616 47.3114 4269.92
0.766667 0.5 0 0.890975 45.4471 4274.42
0.8 0.5 0 6.58367 42.6884 4278.04
0.833333 0.5 0 -18.4655 46.4491 4272.77
0.166667 0.533333 0 -0.886768 -50.0479 4302.55
0.2 0.533333 0 -11.6037 -45.4447 4290.61
0.233333 0.533333 0 -8.47397 -32.3372 4275.14
0.266667 0.533333 0 -7.33449 -40.9033 4276.1
0.3 0.533333 0 -11.3963 -46.1014 4271.97
0.333333 0.533333 0 -23.0389 -39.7021 4260.2
0.366667 0.533333 0 -22.6166 -24.7486 4252.97
0.4 0.533333 0 -12.2228 -24.5068 4252.38
0.433333 0.533333 0 -11.6236 -23.1436 4251.93
0.466667 0.533333 0 -16.1273 -13.7214 4255.33
0.5 0.533333 0 -25.2868 -5.11327 4256.09
0.533333 0.533333 0 -38.9493 11.599 4256.7
0.566667 0.533333 0 -14.5866 23.8486 4271.95
0.6 0.533333 0 -16.4904 22.2809 4279.15
0.633333 0.533333 0 -27.4621 20.2058 4282.02
0.666667 0.533333 0 -31.0164 34.0284 4273.15
0.7 0.533333 0 -15.3864 41.2604 4267.75
0.733333 0.533333 0 -6.9314 43.5707 4270.43
0.766667 0.533333 0 -0.0855549 44.4546 4277.19
0.8 0.533333 0 6.8532 40.6886 4286.73
0.833333 0.533333 0 -4.68242 37.1121 4292.28
0.166667 0.566667 0 -6.15371 -46.4006 4286.15
0.2 0.566667 0 -2.80279 -46.6671 4275.67
0.233333 0.566667 0 -7.73091 -32.5532 4261.91
0.266667 0.566667 0 -14.262 -39.8202 4243.1
0.3 0.566667 0 -13.6702 -44.8528 4234.1
0.333333 0.566667 0 -7.06449 -37.7596 4234.07
0.366667 0.566667 0 -15.4134 -28.0474 4230.22
0.4 0.566667 0 -17.2319 -27.3427 4227.61
0.433333 0.566667 0 -20.2009 -22.2185 4229.33
0.466667 0.566667 0 -20.6034 -5.89568 4237.75
0.5 0.566667 0 -19.967 -0.4797 4248.39
0.533333 0.566667 0 -26.4573 14.0981 4259.86
0.566667 0.566667 0 -16.8988 25.8156 4259.01
0.6 0.566667 0 -24.3223 19.8668 4246.67
0.633333 0.566667 0 -32.0553 18.6443 4247.72
0.666667 0.566667 0 -25.0606 27.8882 4252.12
0.7 0.566667 0 -15.3277 34.6877 4253.45
0.733333 0.566667 0 -6.90338 39.2283 4257.78
0.766667 0.566667 0 0.381392 45.0078 4269.94
0.8 0.566667 0 0.568799 43.8341 4286.23
0.833333 0.566667 0 -4.6618 33.6819 4295.24
0.166667 0.6 0 -9.40945 -43.5445 4289.43
0.2 0.6 0 11.7132 -36.9948 4284.51
0.233333 0.6 0 -8.07167 -37.2657 4261.5
0.266667 0.6 0 -19.0019 -42.0326 4240.68
0.3 0.6 0 -4.7899 -36.5513 4235.04
0.333333 0.6 0 -0.845951 -32.5491 4230.22
0.366667 0.6 0 -13.9263 -26.8779 4225.92
0.4 0.6 0 -20.0541 -25.0811 4224.25
0.433333 0.6 0 -23.468 -17.3303 4226.85
0.466667 0.6 0 -23.4755 -0.819393 4229.17
0.5 0.6 0 -17.5749 6.20351 4232.68
0.533333 0.6 0 -8.44025 13.796 4232.49
0.566667 0.6 0 -16.9736 17.086 4230.13
0.6 0.6 0 -28.4348 19.9758 4230.36
0.633333 0.6 0 -34.0959 20.2976 4236.36
0.666667 0.6 0 -24.3682 24.9134 4242.39
0.7 0.6 0 -16.0767 29.6642 4249.09
0.733333 0.6 0 -6.15741 36.5593 4259.45
0.766667 0.6 0 4.08063 46.0024 4275.17
0.8 0.6 0 -10.852 40.5632 4272.77
0.833333 0.6 0 -9.45238 32.1742 4277.7
0.166667 0.633333 0 0.263455 -29.3273 4306.78
0.2 0.633333 0 7.07324 -35.6908 4289.89
0.233333 0.633333 0 -7.17613 -43.7584 4264.22
0.266667 0.633333 0 -12.0668 -33.9156 4246.19
0.3 0.633333 0 -3.44046 -32.582 4237.58
0.333333 0.633333 0 0.446173 -31.8769 4230.77
0.366667 0.633333 0 -11.468 -25.6018 4225.13
0.4 0.633333 0 -19.4108 -20.0967 4222.48
0.433333 0.633333 0 -25.9138 -11.1682 4225.59
0.466667 0.633333 0 -22.5304 2.61571 4223.15
0.5 0.633333 0 -15.807 7.40556 4220.56
0.533333 0.633333 0 -12.0577 11.1814 4218.72
0.566667 0.633333 0 -17.5139 14.1437 4220.58
0.6 0.633333 0 -25.7118 14.7516 4226.28
0.633333 0.633333 0 -34.2935 19.8713 4230.99
0.666667 0.633333 0 -25.5582 25.3048 4243.04
0.7 0.633333 0 -13.2846 34.962 4269.15
0.733333 0.633333 0 -4.4544 38.5964 4280.53
0.766667 0.633333 0 0.281326 38.036 4282.92
0.8 0.633333 0 -15.7905 35.8298 4283.76
0.833333 0.633333 0 -0.515187 42.5248 4298.92
0.166667 0.666667 0 -2.93645 -23.2388 4270.99
0.2 0.666667 0 -3.00132 -34.6937 4251.32
0.233333 0.666667 0 -2.89992 -42.8317 4239.45
0.266667 0.666667 0 -12.4723 -23.1577 4222.48
0.3 0.666667 0 -8.01909 -26.8416 4228.71
0.333333 0.666667 0 -1.26294 -31.4901 4227.07
0.366667 0.666667 0 -7.26741 -24.087 4219.86
0.4 0.666667 0 -17.5017 -16.5933 4215.28
0.433333 0.666667 0 -24.6924 -8.46743 4210.68
0.466667 0.666667 0 -25.9664 0.746583 4204.34
0.5 0.666667 0 -21.471 2.85485 4200.97
0.533333 0.666667 0 -15.4082 5.8876 4198.74
0.566667 0.666667 0 -20.3414 14.5635 4202.13
0.6 0.666667 0 -28.1952 11.2093 4203.19
0.633333 0.666667 0 -27.0437 15.2676 4210.36
0.666667 0.666667 0 -23.1604 31.3857 4228.94
0.7 0.666667 0 -16.4279 32.8134 4249.58
0.733333 0.666667 0 -8.7548 31.4369 4267.63
0.766667 0.666667 0 -2.74152 29.8209 4277.94
0.8 0.666667 0 -10.7977 33.9858 4288.59
0.833333 0.666667 0 1.1618 44.2736 4308.13
0.166667 0.7 0 -6.58276 -24.5951 4268.67
0.2 0.7 0 -11.6476 -29.8599 4252.25
0.233333 0.7 0 1.71281 -36.0138 4247.08
0.266667 0.7 0 -2.93114 -29.156 4234.94
0.3 0.7 0 -18.6299 -15.7574 4213.44
0.333333 0.7 0 -13.1233 -23.2924 4213.87
0.366667 0.7 0 -1.12206 -23.5769 4214.95
0.4 0.7 0 -16.2663 -14.2734 4210.83
0.433333 0.7 0 -25.1419 -9.65383 4208.27
0.466667 0.7 0 -31.0658 -2.23192 4202.45
0.5 0.7 0 -27.1953 -1.03345 4200.51
0.533333 0.7 0 -10.7888 8.6538 4207.34
0.566667 0.7 0 -25.696 11.5863 4204.83
0.6 0.7 0 -31.6641 8.70514 4203.43
0.633333 0.7 0 -17.7903 21.0604 4217.51
0.666667 0.7 0 -24.8028 25.2597 4219.2
0.7 0.7 0 -21.0694 25.7089 4222.17
0.733333 0.7 0 -12.5513 24.9973 4229.7
0.766667 0.7 0 -2.78358 24.4136 4240.58
0.8 0.7 0 7.55542 35.3089 4272.34
0.833333 0.7 0 -8.5541 28.8602 4286.75
0.166667 0.733333 0 4.40623 -37.6678 4297.93
0.2 0.733333 0 -17.1806 -26.5161 4268.88
0.233333 0.733333 0 -1.45004 -30.0811 4262.77
0.266667 0.733333 0 -1.07446 -33.568 4258.18
0.3 0.733333 0 -17.866 -22.7825 4239.13
0.333333 0.733333 0 -23.9155 -17.3878 4228.66
0.366667 0.733333 0 0.190417 -23.3483 4234.19
0.4 0.733333 0 -11.2165 -19.172 4228.32
0.433333 0.733333 0 -26.2338 -10.5043 4216.18
0.466667 0.733333 0 -34.494 -3.55252 4211.13
0.5 0.733333 0 -26.5392 3.22446 4216.3
0.533333 0.733333 0 -13.173 11.4123 4226.48
0.566667 0.733333 0 -27.9924 5.40135 4222.2
0.6 0.733333 0 -26.1924 13.7144 4225.91
0.633333 0.733333 0 -17.1698 17.8467 4227.79
0.666667 0.733333 0 -26.6902 18.3799 4223.78
0.7 0.733333 0 -24.4351 18.9485 4226.05
0.733333 0.733333 0 -12.835 23.3463 4238.8
0.766667 0.733333 0 5.2943 36.208 4267.71
0.8 0.733333 0 3.33844 33.3891 4280.88
0.833333 0.733333 0 -13.2641 26.2636 4291.21
0.166667 0.766667 0 2.40231 -37.462 4315
0.2 0.766667 0 -18.2307 -26.8515 4287.12
0.233333 0.766667 0 -8.08504 -24.3236 4272.25
0.266667 0.766667 0 -8.51882 -28.3903 4264.93
0.3 0.766667 0 -15.0935 -30.2113 4259.31
0.333333 0.766667 0 -27.4164 -14.5131 4240.03
0.366667 0.766667 0 -10.0271 -16.8444 4237.92
0.4 0.766667 0 -12.0276 -21.301 4238.04
0.433333 0.766667 0 -21.0302 -19.1 4232.3
0.466667 0.766667 0 -34.1387 -3.84367 4219.77
0.5 0.766667 0 -20.6115 11.3412 4227.09
0.533333 0.766667 0 -25.8247 5.13094 4217.88
0.566667 0.766667 0 -36.8268 -0.287574 4210.67
0.6 0.766667 0 -24.9686 12.3585 4226.36
0.633333 0.766667 0 -18.2156 14.0313 4231.58
0.666667 0.766667 0 -27.3865 14.8356 4233.86
0.7 0.766667 0 -22.2879 20.8038 4245.77
0.733333 0.766667 0 -4.48216 33.465 4269.04
0.766667 0.766667 0 3.2303 34.6597 4277.99
0.8 0.766667 0 -2.25076 29.5512 4286.58
0.833333 0.766667 0 -7.79047 24.9125 4299.08
0.166667 0.8 0 -6.30857 -25.6024 4280.31
0.2 0.8 0 -13.1387 -29.6328 4267.45
0.233333 0.8 0 -14.4901 -18.4357 4238.59
0.266667 0.8 0 -19.9354 -17.5017 4225.11
0.3 0.8 0 -24.8953 -19.3965 4220.41
0.333333 0.8 0 -20.7523 -18.045 4215.12
0.366667 0.8 0 -23.6212 -4.12387 4194.13
0.4 0.8 0 -25.101 -6.96118 4193.23
0.433333 0.8 0 -26.9888 -13.1721 4193.33
0.466667 0.8 0 -20.6853 -8.16467 4201.1
0.5 0.8 0 -30.6669 -2.4704 4195.72
0.533333 0.8 0 -37.0446 -1.96402 4195.5
0.566667 0.8 0 -31.3378 9.53042 4205.16
0.6 0.8 0 -26.0705 17.5825 4214.49
0.633333 0.8 0 -21.7564 19.8511 4222.39
0.666667 0.8 0 -24.6008 21.2478 4242.56
0.7 0.8 0 -20.0697 24.0875 4251.3
0.733333 0.8 0 -12.3329 22.5531 4255.09
0.766667 0.8 0 -3.46542 24.0628 4262.27
0.8 0.8 0 -7.50504 27.0578 4284.41
0.833333 0.8 0 -9.52266 22.0713 4298.01
0.166667 0.833333 0 -16.758 -17.6192 4275.89
0.2 0.833333 0 -21.792 -20.0914 4263.86
0.233333 0.833333 0 -16.3414 -23.7811 4254.19
0.266667 0.833333 0 -28.4809 -13.8806 4229.46
0.3 0.833333 0 -34.9779 -12.7531 4220.9
0.333333 0.833333 0 -27.1592 -15.9208 4219.98
0.366667 0.833333 0 -25.9959 -12.4617 4210.07
0.4 0.833333 0 -38.0456 -2.16733 4191.17
0.433333 0.833333 0 -38.1853 -5.49959 4191.03
0.466667 0.833333 0 -26.1923 -3.71831 4198.27
0.5 0.833333 0 -34.7375 -2.62968 4198.25
0.533333 0.833333 0 -42.6192 0.0934031 4199.34
0.566667 0.833333 0 -33.0463 12.9527 4207.39
0.6 0.833333 0 -28.6617 17.1726 4213.56
0.633333 0.833333 0 -25.5852 17.878 4219.12
0.666667 0.833333 0 -31.594 13.5292 4220.19
0.7 0.833333 0 -31.1198 10.5009 4221.52
0.733333 0.833333 0 -20.7137 14.702 4236.68
0.766667 0.833333 0 -6.37725 27.8147 4268.31
0.8 0.833333 0 -17.4392 21.4271 4280.15
0.833333 0.833333 0 -9.99503 22.6084 4301
