X Y Z Stress_XX Stress_XY Stress_YY
0.2 0.2 0 189.487 125.531 2661.59
0.24 0.2 0 217.884 119.931 2661.22
0.28 0.2 0 241.136 110.347 2661.11
0.32 0.2 0 254.462 95.9247 2659.7
0.36 0.2 0 269.679 73.4595 2658.11
0.4 0.2 0 282 55.0267 2659.25
0.44 0.2 0 286.945 33.1871 2659.28
0.48 0.2 0 291.556 12.0068 2659.14
0.52 0.2 0 290.688 -11.6625 2659.06
0.56 0.2 0 289.068 -34.0106 2659.69
0.6 0.2 0 279.284 -55.4885 2658.78
0.64 0.2 0 271.496 -76.2171 2658.86
0.68 0.2 0 257.882 -95.545 2660.16
0.72 0.2 0 239.304 -108.68 2661.51
0.76 0.2 0 214.554 -121.379 2661.95
0.8 0.2 0 188.962 -126.496 2660.86
0.2 0.24 0 143.346 99.5881 2660.84
0.24 0.24 0 169.112 96.8903 2669.45
0.28 0.24 0 190.831 89.8172 2672.69
0.32 0.24 0 208.513 78.0508 2675.58
0.36 0.24 0 222.346 64.5626 2676.2
0.4 0.24 0 232.059 47.4205 2677.86
0.44 0.24 0 237.191 28.8233 2678.59
0.48 0.24 0 242.217 9.72968 2678.41
0.52 0.24 0 241.184 -9.91328 2677.26
0.56 0.24 0 239.765 -28.9534 2679.24
0.6 0.24 0 233.025 -46.6287 2678.52
0.64 0.24 0 222.274 -62.7817 2676.87
0.68 0.24 0 206.149 -78.7333 2675.53
0.72 0.24 0 187.905 -90.8508 2673.7
0.76 0.24 0 168.203 -96.4251 2668.56
0.8 0.24 0 141.244 -100.15 2663.21
0.2 0.28 0 104.81 75.412 2658.68
0.24 0.28 0 128.295 75.5251 2671.93
0.28 0.28 0 148.404 70.786 2681.27
0.32 0.28 0 163.98 63.1565 2687.25
0.36 0.28 0 176.562 51.8557 2690.55
0.4 0.28 0 187.381 38.0167 2693.48
0.44 0.28 0 191.299 24.0715 2695.41
0.48 0.28 0 197.79 7.26686 2696
0.52 0.28 0 199.143 -7.83675 2695.62
0.56 0.28 0 190.113 -23.7129 2695.4
0.6 0.28 0 186.892 -39.0063 2693.96
0.64 0.28 0 179.213 -52.7017 2691.32
0.68 0.28 0 165.03 -62.8178 2687.21
0.72 0.28 0 149.675 -70.9218 2681.6
0.76 0.28 0 126.802 -75.4514 2672.6
0.8 0.28 0 105.215 -77.1414 2659.77
0.2 0.32 0 79.177 55.2347 2656.52
0.24 0.32 0 96.1446 56.0288 2673.69
0.28 0.32 0 114.692 54.1868 2687.07
0.32 0.32 0 130.416 49.0072 2696.25
0.36 0.32 0 142.143 39.5202 2702.58
0.4 0.32 0 151.604 30.4305 2706.68
0.44 0.32 0 154.332 19.146 2709.95
0.48 0.32 0 160.347 5.3419 2710.67
0.52 0.32 0 160.877 -6.17336 2710.87
0.56 0.32 0 154.763 -18.6713 2709.92
0.6 0.32 0 153.722 -30.1152 2707.13
0.64 0.32 0 138.991 -40.4569 2702.68
0.68 0.32 0 129.908 -48.7223 2695.66
0.72 0.32 0 111.991 -53.917 2686.85
0.76 0.32 0 95.2368 -57.1119 2673.43
0.8 0.32 0 77.7727 -56.2323 2657.59
0.2 0.36 0 57.3706 39.7043 2652.7
0.24 0.36 0 72.8025 41.245 2673.77
0.28 0.36 0 87.3105 39.9441 2688.89
0.32 0.36 0 99.2582 35.1682 2702.41
0.36 0.36 0 112.091 30.2143 2710.62
0.4 0.36 0 120.901 22.4577 2716.47
0.44 0.36 0 127.58 13.6196 2719.27
0.48 0.36 0 130.16 4.62549 2721.35
0.52 0.36 0 129.759 -4.98796 2721.52
0.56 0.36 0 125.935 -14.5142 2719.43
0.6 0.36 0 118.271 -23.2016 2716.22
0.64 0.36 0 113.025 -30.2098 2710.33
0.68 0.36 0 101.017 -35.9042 2702.05
0.72 0.36 0 86.5704 -39.5861 2690.19
0.76 0.36 0 72.7029 -40.3494 2673.69
0.8 0.36 0 56.2337 -39.8759 2653.97
0.2 0.4 0 43.9834 26.2752 2650.89
0.24 0.4 0 56.4236 27.9291 2673.26
0.28 0.4 0 68.2461 26.9615 2691.59
0.32 0.4 0 81.0611 25.3588 2704.88
0.36 0.4 0 88.9589 21.3656 2716.24
0.4 0.4 0 98.0365 16.2807 2722.27
0.44 0.4 0 102.601 10.2756 2727.25
0.48 0.4 0 106.591 3.53946 2729.39
0.52 0.4 0 106.618 -3.34779 2729.45
0.56 0.4 0 104.123 -10.1778 2727.53
0.6 0.4 0 98.8144 -15.7423 2722.65
0.64 0.4 0 90.4402 -20.4069 2716.46
0.68 0.4 0 80.2853 -24.8428 2705.89
0.72 0.4 0 68.3044 -26.8213 2691.54
0.76 0.4 0 56.0157 -27.4645 2673.15
0.8 0.4 0 43.4789 -25.7669 2650.18
0.2 0.44 0 35.6583 14.574 2648.25
0.24 0.44 0 46.5546 15.0638 2672.51
0.28 0.44 0 57.1277 15.2776 2694.67
0.32 0.44 0 68.201 14.2331 2708.83
0.36 0.44 0 75.6465 11.7761 2719.79
0.4 0.44 0 83.7333 8.9533 2727.71
0.44 0.44 0 89.1347 5.8914 2731.94
0.48 0.44 0 91.6846 2.22832 2734.79
0.52 0.44 0 91.3752 -1.99055 2734.7
0.56 0.44 0 88.3476 -6.09698 2731.59
0.6 0.44 0 83.8304 -9.22164 2727.7
0.64 0.44 0 75.6103 -11.6444 2719.56
0.68 0.44 0 68.1636 -14.3634 2709.19
0.72 0.44 0 56.3226 -15.3688 2693.69
0.76 0.44 0 45.8891 -14.9574 2673.17
0.8 0.44 0 34.8701 -13.9564 2649.06
0.2 0.48 0 30.1812 4.69705 2647.94
0.24 0.48 0 39.5393 5.61599 2673.1
0.28 0.48 0 50.5543 5.92935 2692.41
0.32 0.48 0 60.5975 5.40708 2708.69
0.36 0.48 0 69.0628 4.28005 2721.02
0.4 0.48 0 76.4467 2.9525 2729.72
0.44 0.48 0 80.7741 2.09106 2734.75
0.48 0.48 0 83.437 0.916092 2736.98
0.52 0.48 0 83.9021 -0.507492 2737.08
0.56 0.48 0 81.1344 -1.81006 2734.83
0.6 0.48 0 75.5219 -2.95771 2729.59
0.64 0.48 0 69.2863 -3.7688 2721.04
0.68 0.48 0 60.6869 -4.96691 2708.96
0.72 0.48 0 50.6609 -5.68472 2692.96
0.76 0.48 0 40.1433 -5.0596 2672.33
0.8 0.48 0 30.646 -3.73728 2647.41
0.2 0.52 0 30.6441 -3.73631 2647.4
0.24 0.52 0 40.1266 -5.03986 2672.33
0.28 0.52 0 50.6701 -5.57903 2692.96
0.32 0.52 0 60.5777 -4.94639 2708.93
0.36 0.52 0 69.3266 -3.75276 2721
0.4 0.52 0 75.4484 -2.82912 2729.63
0.44 0.52 0 81.0468 -1.82747 2734.96
0.48 0.52 0 84.0921 -0.708117 2737.09
0.52 0.52 0 83.653 0.894821 2736.97
0.56 0.52 0 80.961 1.91722 2734.75
0.6 0.52 0 76.2177 3.14258 2729.49
0.64 0.52 0 69.2296 4.32678 2721.03
0.68 0.52 0 60.6764 5.32829 2708.72
0.72 0.52 0 50.5513 5.99614 2692.41
0.76 0.52 0 39.5403 5.62089 2673.08
0.8 0.52 0 30.1871 4.70565 2647.95
0.2 0.56 0 34.8597 -13.9518 2649.06
0.24 0.56 0 45.8725 -14.9451 2673.18
0.28 0.56 0 56.3141 -15.3516 2693.68
0.32 0.56 0 68.0998 -14.3818 2709.21
0.36 0.56 0 75.669 -11.5915 2719.55
0.4 0.56 0 83.5592 -9.02011 2727.82
0.44 0.56 0 88.9011 -6.10361 2731.75
0.48 0.56 0 91.1827 -2.05532 2734.83
0.52 0.56 0 91.3337 2.04285 2734.91
0.56 0.56 0 88.8663 5.9796 2731.89
0.6 0.56 0 83.6513 8.89548 2727.66
0.64 0.56 0 75.6418 11.8119 2719.84
0.68 0.56 0 68.1942 14.3067 2708.74
0.72 0.56 0 57.1692 15.2058 2694.65
0.76 0.56 0 46.5603 15.0525 2672.51
0.8 0.56 0 35.6614 14.5707 2648.24
0.2 0.6 0 43.4746 -25.7587 2650.18
0.24 0.6 0 55.9997 -27.4658 2673.15
0.28 0.6 0 68.2846 -26.8214 2691.55
0.32 0.6 0 80.2711 -24.8225 2705.92
0.36 0.6 0 90.4731 -20.338 2716.51
0.4 0.6 0 98.6742 -15.8076 2722.5
0.44 0.6 0 103.429 -10.0862 2727.59
0.48 0.6 0 106.849 -3.38853 2729.59
0.52 0.6 0 106.71 3.42775 2729.66
0.56 0.6 0 103.369 10.1228 2727.38
0.6 0.6 0 98.0678 16.1738 2722.37
0.64 0.6 0 88.9685 21.3978 2716.28
0.68 0.6 0 80.9324 25.4535 2704.78
0.72 0.6 0 68.2297 26.983 2691.56
0.76 0.6 0 56.4255 27.9233 2673.26
0.8 0.6 0 43.9788 26.2786 2650.89
0.2 0.64 0 56.2305 -39.87 2653.97
0.24 0.64 0 72.6944 -40.3499 2673.68
0.28 0.64 0 86.5953 -39.5542 2690.21
0.32 0.64 0 101.1 -35.8632 2702.05
0.36 0.64 0 113.089 -30.1984 2710.34
0.4 0.64 0 118.163 -23.1952 2716.11
0.44 0.64 0 125.882 -14.5709 2719.3
0.48 0.64 0 129.796 -4.85191 2721.42
0.52 0.64 0 130.499 4.6154 2721.28
0.56 0.64 0 127.487 13.6242 2719.2
0.6 0.64 0 120.656 22.4617 2716.44
0.64 0.64 0 112.007 30.2266 2710.57
0.68 0.64 0 99.2359 35.1862 2702.37
0.72 0.64 0 87.2835 39.9658 2688.86
0.76 0.64 0 72.7962 41.2441 2673.76
0.8 0.64 0 57.3638 39.7095 2652.69
0.2 0.68 0 77.7701 -56.2308 2657.58
0.24 0.68 0 95.244 -57.1015 2673.43
0.28 0.68 0 111.994 -53.9111 2686.84
0.32 0.68 0 129.863 -48.7599 2695.66
0.36 0.68 0 138.934 -40.4803 2702.67
0.4 0.68 0 153.869 -30.1094 2707.09
0.44 0.68 0 154.816 -18.61 2709.95
0.48 0.68 0 160.721 -6.14247 2710.8
0.52 0.68 0 160.235 5.48151 2710.57
0.56 0.68 0 154.285 19.0565 2709.92
0.6 0.68 0 151.558 30.401 2706.67
0.64 0.68 0 142.074 39.5174 2702.57
0.68 0.68 0 130.333 49.0374 2696.22
0.72 0.68 0 114.664 54.199 2687.06
0.76 0.68 0 96.1378 56.0284 2673.69
0.8 0.68 0 79.1644 55.2427 2656.52
0.2 0.72 0 105.217 -77.1365 2659.77
0.24 0.72 0 126.809 -75.4445 2672.6
0.28 0.72 0 149.676 -70.9242 2681.6
0.32 0.72 0 165.02 -62.8308 2687.21
0.36 0.72 0 179.285 -52.6797 2691.36
0.4 0.72 0 186.866 -39.0079 2693.95
0.44 0.72 0 190.165 -23.6695 2695.41
0.48 0.72 0 199.118 -7.89459 2695.61
0.52 0.72 0 197.778 7.29362 2695.97
0.56 0.72 0 191.479 24.0237 2695.43
0.6 0.72 0 187.592 37.9273 2693.49
0.64 0.72 0 176.593 51.8371 2690.56
0.68 0.72 0 164.006 63.137 2687.24
0.72 0.72 0 148.396 70.7785 2681.28
0.76 0.72 0 128.282 75.5275 2671.93
0.8 0.72 0 104.804 75.4119 2658.68
0.2 0.76 0 141.246 -100.147 2663.21
0.24 0.76 0 168.2 -96.4264 2668.56
0.28 0.76 0 187.9 -90.8563 2673.71
0.32 0.76 0 206.155 -78.7325 2675.54
0.36 0.76 0 222.33 -62.7627 2676.88
0.4 0.76 0 233.015 -46.6303 2678.52
0.44 0.76 0 239.775 -28.9422 2679.26
0.48 0.76 0 241.135 -9.90801 2677.24
0.52 0.76 0 242.217 9.73543 2678.4
0.56 0.76 0 237.189 28.8255 2678.59
0.6 0.76 0 232.004 47.445 2677.85
0.64 0.76 0 222.309 64.5647 2676.19
0.68 0.76 0 208.527 78.0341 2675.58
0.72 0.76 0 190.821 89.8167 2672.68
0.76 0.76 0 169.107 96.8876 2669.44
0.8 0.76 0 143.338 99.5885 2660.84
0.2 0.8 0 188.963 -126.494 2660.86
0.24 0.8 0 214.555 -121.378 2661.95
0.28 0.8 0 239.304 -108.681 2661.51
0.32 0.8 0 257.867 -95.5515 2660.17
0.36 0.8 0 271.5 -76.2128 2658.87
0.4 0.8 0 279.299 -55.4852 2658.79
0.44 0.8 0 289.073 -34.0063 2659.69
0.48 0.8 0 290.713 -11.6544 2659.06
0.52 0.8 0 291.562 12.0179 2659.14
0.56 0.8 0 286.946 33.1777 2659.28
0.6 0.8 0 282 55.0253 2659.25
0.64 0.8 0 269.711 73.4447 2658.12
0.68 0.8 0 254.479 95.9129 2659.7
0.72 0.8 0 241.146 110.338 2661.11
0.76 0.8 0 217.883 119.926 2661.22
0.8 0.8 0 189.484 125.528 2661.58
